NAME : kroB100.34710.tour
COMMENT : Cost = 6951_34710
COMMENT : Found by LKH [Keld Helsgaun] Thu Nov 16 17:27:04 2017
TYPE : TOUR
DIMENSION : 104
TOUR_SECTION
1
46
54
55
24
96
92
44
19
22
23
88
37
72
102
21
10
68
86
49
38
20
80
30
75
65
47
79
81
56
100
26
69
62
5
67
40
39
70
53
73
85
93
11
3
98
101
90
9
25
34
7
84
58
52
50
77
18
45
36
41
17
78
13
2
16
43
94
27
12
104
95
29
8
99
28
91
97
76
59
32
35
66
4
6
15
33
83
87
74
61
71
103
89
14
42
63
31
48
51
82
64
60
57
-1
EOF
